
--- Job Es3.gms Start 11/18/22 12:36:52 40.3.0 f227c22a DEX-DEG x86 64bit/Mac OS X
--- Applying:
    /Library/Frameworks/GAMS.framework/Versions/40/Resources/gmsprmun.txt
    /Users/marcovinciguerra/Library/Preferences/GAMS/gamsconfig.yaml
--- GAMS Parameters defined
    Input /Users/marcovinciguerra/Github/Gams/Es3.gms
    PageSize 0
    ScrDir /Users/marcovinciguerra/Github/Gams/225a/
    SysDir /Library/Frameworks/GAMS.framework/Versions/40/Resources/
    LogOption 3
    ErrMsg 1
    ErrorLog 99
    IDE 1
    LstTitleLeftAligned 1
Licensee: GAMS Demo license for marco vinciguerra        G220927|0002CO-GEN
          unibg, Italy                                             DL074718
          /Users/marcovinciguerra/Library/Application Support/GAMS/gamslice.txt
          mvincig11@gmail.com, marco vinciguerra                           
          Demo license for demonstration and instructional purposes only
Processor information: 1 socket(s), 8 core(s), and 8 thread(s) available
GAMS 40.3.0   Copyright (C) 1987-2022 GAMS Development. All rights reserved
--- Starting compilation
--- Es3.gms(92) 3 Mb
--- Starting execution: elapsed 0:00:00.006
--- Generating LP model production
--- Es3.gms(61) 4 Mb
---   7 rows  13 columns  30 non-zeroes
--- Range statistics (absolute non-zero finite values)
--- RHS       [min, max] : [ 1.000E+02, 2.500E+02] - Zero values observed as well
--- Bound     [min, max] : [        NA,        NA] - Zero values observed as well
--- Matrix    [min, max] : [ 1.000E+00, 5.500E+01]
--- Executing CPLEX (Solvelink=2): elapsed 0:00:00.012

IBM ILOG CPLEX   40.3.0 f227c22a Sep 16, 2022          DEG x86 64bit/Mac OS X 

--- *** This solver runs with a demo license. No commercial use.
--- GMO setup time: 0.00s
--- GMO memory 0.50 Mb (peak 0.50 Mb)
--- Dictionary memory 0.00 Mb
--- Cplex 22.1.0.0 link memory 0.00 Mb (peak 0.00 Mb)
--- Starting Cplex

Version identifier: 22.1.0.0 | 2022-03-09 | 1a383f8ce
CPXPARAM_Advance                                 0
CPXPARAM_Simplex_Display                         2
CPXPARAM_Threads                                 1
CPXPARAM_MIP_Display                             4
CPXPARAM_MIP_Pool_Capacity                       0
CPXPARAM_MIP_Tolerances_AbsMIPGap                0
Tried aggregator 1 time.
LP Presolve eliminated 6 rows and 13 columns.
All rows and columns eliminated.
Presolve time = 0.00 sec. (0.01 ticks)

--- LP status (1): optimal.
--- Cplex Time: 0.00sec (det. 0.01 ticks)


Optimal solution found
Objective:        49980.000000

--- Reading solution for model production
--- Executing after solve: elapsed 0:00:00.049
--- Es3.gms(77) 4 Mb
--- Generating LP model production
--- Es3.gms(78) 4 Mb
---   7 rows  13 columns  30 non-zeroes
--- Range statistics (absolute non-zero finite values)
--- RHS       [min, max] : [ 5.000E+01, 2.500E+02] - Zero values observed as well
--- Bound     [min, max] : [        NA,        NA] - Zero values observed as well
--- Matrix    [min, max] : [ 1.000E+00, 5.500E+01]
--- Executing CPLEX (Solvelink=2): elapsed 0:00:00.051

IBM ILOG CPLEX   40.3.0 f227c22a Sep 16, 2022          DEG x86 64bit/Mac OS X 

--- *** This solver runs with a demo license. No commercial use.
--- GMO setup time: 0.00s
--- GMO memory 0.50 Mb (peak 0.50 Mb)
--- Dictionary memory 0.00 Mb
--- Cplex 22.1.0.0 link memory 0.00 Mb (peak 0.00 Mb)
--- Starting Cplex

Version identifier: 22.1.0.0 | 2022-03-09 | 1a383f8ce
CPXPARAM_Advance                                 2
CPXPARAM_Simplex_Display                         2
CPXPARAM_Threads                                 1
CPXPARAM_MIP_Display                             4
CPXPARAM_MIP_Pool_Capacity                       0
CPXPARAM_MIP_Tolerances_AbsMIPGap                0
Tried aggregator 1 time.
LP Presolve eliminated 6 rows and 13 columns.
All rows and columns eliminated.
Presolve time = 0.00 sec. (0.01 ticks)

--- LP status (1): optimal.
--- Cplex Time: 0.00sec (det. 0.01 ticks)


Optimal solution found
Objective:        47480.000000

--- Reading solution for model production
--- Executing after solve: elapsed 0:00:00.084
--- Es3.gms(85) 4 Mb
--- Generating LP model production
--- Es3.gms(86) 4 Mb
---   7 rows  13 columns  30 non-zeroes
--- Range statistics (absolute non-zero finite values)
--- RHS       [min, max] : [ 5.000E+01, 2.500E+02] - Zero values observed as well
--- Bound     [min, max] : [ 5.000E+01, 5.000E+01] - Zero values observed as well
--- Matrix    [min, max] : [ 1.000E+00, 5.500E+01]
--- Executing CPLEX (Solvelink=2): elapsed 0:00:00.086

IBM ILOG CPLEX   40.3.0 f227c22a Sep 16, 2022          DEG x86 64bit/Mac OS X 

--- *** This solver runs with a demo license. No commercial use.
--- GMO setup time: 0.00s
--- GMO memory 0.50 Mb (peak 0.50 Mb)
--- Dictionary memory 0.00 Mb
--- Cplex 22.1.0.0 link memory 0.00 Mb (peak 0.00 Mb)
--- Starting Cplex

Version identifier: 22.1.0.0 | 2022-03-09 | 1a383f8ce
CPXPARAM_Advance                                 2
CPXPARAM_Simplex_Display                         2
CPXPARAM_Threads                                 1
CPXPARAM_MIP_Display                             4
CPXPARAM_MIP_Pool_Capacity                       0
CPXPARAM_MIP_Tolerances_AbsMIPGap                0
Tried aggregator 1 time.
LP Presolve eliminated 6 rows and 13 columns.
All rows and columns eliminated.
Presolve time = 0.00 sec. (0.01 ticks)

--- LP status (1): optimal.
--- Cplex Time: 0.00sec (det. 0.01 ticks)


Optimal solution found
Objective:        50380.000000

--- Reading solution for model production
--- Executing after solve: elapsed 0:00:00.122
--- Es3.gms(88) 4 Mb
*** Status: Normal completion
--- Job Es3.gms Stop 11/18/22 12:36:52 elapsed 0:00:00.122
